NAME : P-n20-k2.169.tour
COMMENT : Length = 169
COMMENT : Found by LKH [Keld Helsgaun] Sun Dec 17 22:30:55 2017
TYPE : TOUR
DIMENSION : 21
TOUR_SECTION
1
2
11
5
12
16
13
4
19
18
9
14
21
7
20
6
15
17
10
8
3
-1
EOF
